NAME : a280
COMMENT : Tour length 3429
TYPE : TOUR
DIMENSION : 280
TOUR_SECTION
1
2
242
243
244
245
240
239
238
231
246
247
250
251
230
229
228
227
226
225
224
223
222
219
218
217
220
221
216
213
212
207
210
211
214
215
205
204
203
202
200
144
143
142
147
146
145
199
198
197
194
195
196
201
193
192
191
190
189
188
187
185
184
183
182
181
176
177
151
152
156
153
155
154
129
128
127
126
125
30
31
32
33
34
35
36
37
38
39
40
41
42
43
60
61
118
117
115
114
113
87
84
85
65
64
66
67
70
71
72
73
74
75
76
77
78
95
94
93
98
97
96
99
100
101
102
103
104
105
106
107
173
174
161
162
163
164
165
166
167
168
169
170
171
172
108
110
111
112
88
83
82
81
80
79
89
109
90
91
92
86
116
62
63
59
44
45
56
57
58
68
69
55
54
53
52
51
50
49
48
47
46
124
123
122
121
120
119
157
158
159
160
175
180
179
178
150
149
139
138
137
267
266
140
141
148
265
264
263
262
261
260
259
258
257
254
253
208
209
252
255
256
249
248
278
279
3
280
4
277
276
275
274
273
272
271
16
17
18
133
132
19
20
21
130
131
134
135
136
268
269
270
15
13
12
11
10
8
7
9
6
5
241
237
232
233
234
235
236
206
14
24
23
25
22
26
27
28
29
186
1
-1
EOF